data;


param FN:= 8;
param D:= 100;
param U_Original:=
         1         1        3.148734e-01
         2         1        2.349439e-01
         3         1        2.789421e-01
         4         1        6.341449e-01
         5         1        2.410813e-01
         6         1       -8.846670e-01
         7         1        2.886659e+00
         8         1        4.023500e-01
         9         1       -2.263385e-01
        10         1       -6.497770e-01
        11         1       -2.357853e-01
        12         1        2.950927e+00
        13         1       -1.327230e-01
        14         1       -1.245011e-01
        15         1       -2.211626e-01
        16         1        4.224758e-01
        17         1       -9.126063e-01
        18         1       -3.650549e-01
        19         1        8.693906e-01
        20         1        2.743871e-01
        21         1        9.497657e-01
        22         1       -5.600367e-01
        23         1       -1.349792e+00
        24         1       -1.143245e+00
        25         1        2.232860e-01
        26         1        6.535729e-01
        27         1       -3.378048e-01
        28         1        2.261613e+00
        29         1       -1.279922e+00
        30         1       -7.052928e-01
        31         1        5.815583e-01
        32         1        2.028007e+00
        33         1       -1.047098e+00
        34         1       -7.532085e-01
        35         1        5.484929e-01
        36         1        9.352416e-01
        37         1       -1.542607e+00
        38         1       -8.065587e-01
        39         1        2.034398e+00
        40         1       -4.707307e-01
        41         1       -3.416519e-01
        42         1       -4.379820e-01
        43         1       -5.657561e-01
        44         1        7.624989e-01
        45         1       -1.425484e-01
        46         1        1.674652e+00
        47         1       -4.555980e-01
        48         1       -1.434168e-01
        49         1       -6.382133e-01
        50         1       -1.767269e-01
        51         1       -1.316139e-01
        52         1       -2.608197e-01
        53         1       -1.168223e+00
        54         1        7.435486e-01
        55         1       -4.551477e-01
        56         1        1.625756e+00
        57         1       -2.606100e-01
        58         1       -6.920616e-01
        59         1       -1.057722e+00
        60         1       -1.164121e+00
        61         1        2.929066e-01
        62         1       -4.883177e-01
        63         1       -2.786842e+00
        64         1       -4.414794e-01
        65         1       -1.387522e+00
        66         1       -1.695993e+00
        67         1       -5.821301e-01
        68         1       -2.224932e-01
        69         1        5.712975e-01
        70         1       -3.856987e-01
        71         1       -1.454838e+00
        72         1        6.615621e-01
        73         1       -7.369107e-01
        74         1        5.144344e-01
        75         1       -4.963210e-02
        76         1        2.792362e+00
        77         1        2.272584e-01
        78         1       -2.696074e-01
        79         1       -1.035509e+00
        80         1        1.654113e+00
        81         1       -1.384116e+00
        82         1        1.202768e+00
        83         1       -2.613256e-02
        84         1        1.056537e+00
        85         1       -9.705697e-01
        86         1       -2.927220e-01
        87         1       -2.323941e+00
        88         1       -7.325016e-01
        89         1       -1.085675e+00
        90         1        4.015800e-01
        91         1        6.311313e-01
        92         1        1.376502e+00
        93         1        3.207786e-01
        94         1       -3.129805e-01
        95         1       -7.319323e-01
        96         1       -1.330856e+00
        97         1       -7.677489e-01
        98         1        1.394337e+00
        99         1        2.166087e+00
       100         1       -3.847630e-01
         1         2        5.952451e-01
         2         2       -1.283180e+00
         3         2        4.331125e-01
         4         2        1.882792e+00
         5         2        2.057647e-01
         6         2       -9.873635e-01
         7         2        3.431465e-01
         8         2       -1.180146e+00
         9         2       -5.738920e-02
        10         2       -3.636911e-01
        11         2       -1.435876e-01
        12         2       -6.219906e-01
        13         2        6.026162e-01
        14         2        1.334869e+00
        15         2       -7.724743e-01
        16         2       -4.619705e-01
        17         2       -1.284490e+00
        18         2       -1.236228e-01
        19         2       -2.364156e+00
        20         2       -1.865807e+00
        21         2       -3.648039e-02
        22         2        1.548505e-02
        23         2       -8.315894e-01
        24         2        1.026563e+00
        25         2        4.354805e-01
        26         2       -1.623442e-01
        27         2       -1.737860e+00
        28         2        6.175389e-01
        29         2        3.568378e-01
        30         2       -4.366561e-01
        31         2        4.398736e-02
        32         2       -3.057962e+00
        33         2        3.144560e-01
        34         2       -5.351620e-01
        35         2       -7.146289e-01
        36         2        8.750093e-01
        37         2       -9.051347e-01
        38         2       -5.507765e-01
        39         2        3.119446e-01
        40         2       -1.173223e+00
        41         2       -1.254381e+00
        42         2        8.758602e-01
        43         2       -1.831251e+00
        44         2       -5.723281e-01
        45         2       -1.645047e-01
        46         2        4.632937e-01
        47         2       -9.121494e-01
        48         2        9.432254e-01
        49         2       -1.861895e+00
        50         2        2.071307e+00
        51         2       -4.492646e-01
        52         2        2.584934e-02
        53         2        1.309947e+00
        54         2        6.438752e-02
        55         2       -4.462788e-02
        56         2       -5.172604e-01
        57         2       -3.580493e-01
        58         2        5.502889e-01
        59         2       -2.917030e-01
        60         2       -1.091847e+00
        61         2       -9.418260e-02
        62         2        9.827517e-02
        63         2       -1.632622e-01
        64         2        3.277821e-01
        65         2        1.402538e+00
        66         2        1.294505e+00
        67         2        6.955962e-01
        68         2       -1.505598e+00
        69         2       -2.229361e-01
        70         2       -9.992458e-01
        71         2        3.479126e-01
        72         2       -3.588151e-01
        73         2        1.680900e-01
        74         2       -1.431475e+00
        75         2        1.527056e-01
        76         2        1.046706e+00
        77         2        1.350025e-02
        78         2       -1.709743e-01
        79         2        4.593629e-01
        80         2        6.860018e-01
        81         2        8.209741e-01
        82         2        6.227305e-01
        83         2       -5.396289e-01
        84         2        4.039502e-01
        85         2       -4.149208e-02
        86         2        2.955896e-01
        87         2        1.703000e+00
        88         2       -2.072648e+00
        89         2       -3.830429e-01
        90         2       -1.018474e+00
        91         2        6.586368e-01
        92         2       -1.866754e+00
        93         2        3.843578e-01
        94         2        2.256619e-01
        95         2       -5.936452e-01
        96         2        1.775662e+00
        97         2       -2.909639e+00
        98         2       -5.586692e-05
        99         2        2.038545e+00
       100         2       -1.365249e+00
         1         3       -4.210024e-01
         2         3        1.063501e-01
         3         3        2.253053e-01
         4         3       -4.135740e-01
         5         3        1.317456e+00
         6         3        6.381072e-01
         7         3       -5.728430e-01
         8         3       -1.567532e+00
         9         3       -6.720036e-01
        10         3       -8.259381e-01
        11         3       -4.649255e-01
        12         3       -7.592974e-01
        13         3       -3.246213e-01
        14         3       -1.691131e+00
        15         3       -9.674048e-01
        16         3       -4.649119e-01
        17         3        3.854965e-01
        18         3        1.206912e+00
        19         3        2.305617e-01
        20         3        3.416274e+00
        21         3        1.120465e+00
        22         3        8.010993e-01
        23         3       -1.342875e+00
        24         3        2.668564e-01
        25         3        3.400511e-01
        26         3       -4.588424e-01
        27         3        7.778224e-01
        28         3        8.145597e-01
        29         3       -1.074794e+00
        30         3        1.211854e+00
        31         3        5.715818e-01
        32         3        9.539321e-01
        33         3        2.259054e-01
        34         3        1.038122e+00
        35         3        1.569782e+00
        36         3       -8.573299e-01
        37         3        7.030158e-01
        38         3       -1.136672e-01
        39         3        1.690277e+00
        40         3        9.186305e-01
        41         3        2.232617e+00
        42         3        1.714382e-01
        43         3       -2.091722e-01
        44         3        6.503618e-01
        45         3        1.195779e+00
        46         3        2.090103e-04
        47         3        1.306280e+00
        48         3        1.423884e-01
        49         3       -8.234350e-01
        50         3       -2.384966e-01
        51         3        4.732238e-01
        52         3       -4.900398e-01
        53         3        2.859708e-01
        54         3       -5.369995e-01
        55         3        3.410198e-01
        56         3        9.237118e-02
        57         3        1.425304e-01
        58         3        1.043672e+00
        59         3        1.311681e+00
        60         3       -2.744837e-01
        61         3       -8.891259e-01
        62         3       -3.648369e-01
        63         3       -9.024500e-01
        64         3       -1.151092e+00
        65         3        4.009912e-01
        66         3        1.647212e+00
        67         3       -4.672278e-01
        68         3        9.703074e-02
        69         3        2.905522e+00
        70         3        1.177880e+00
        71         3        1.192761e+00
        72         3        1.585294e+00
        73         3        1.184113e+00
        74         3        1.190869e+00
        75         3       -6.056727e-01
        76         3        5.824401e-01
        77         3       -1.647638e+00
        78         3       -9.664833e-02
        79         3       -5.207780e-01
        80         3       -1.872465e-01
        81         3        1.620197e+00
        82         3        1.910564e+00
        83         3        9.486544e-01
        84         3        3.500914e-01
        85         3        2.626465e-01
        86         3        1.492103e+00
        87         3        2.125898e+00
        88         3        8.049265e-01
        89         3       -6.204300e-01
        90         3        7.202988e-01
        91         3        1.201397e+00
        92         3        6.431736e-01
        93         3        7.882230e-01
        94         3       -8.214845e-01
        95         3        4.083760e-01
        96         3       -7.238721e-01
        97         3        7.021417e-01
        98         3       -2.564578e-01
        99         3       -5.194359e-01
       100         3        4.112251e-01
         1         4       -1.160440e+00
         2         4        6.659698e-01
         3         4        1.654520e+00
         4         4       -5.901099e-01
         5         4       -5.190253e-01
         6         4        3.460073e-01
         7         4       -1.780093e+00
         8         4        1.366789e-01
         9         4        1.458692e+00
        10         4        1.450589e-01
        11         4        7.893471e-02
        12         4       -3.406297e-01
        13         4       -3.174682e-01
        14         4       -1.861336e+00
        15         4        6.388914e-01
        16         4        1.077966e+00
        17         4        4.928086e-02
        18         4       -1.277721e+00
        19         4        8.591478e-01
        20         4        5.065933e-01
        21         4       -1.049239e+00
        22         4        1.875496e-01
        23         4        1.155248e+00
        24         4        6.054880e-01
        25         4        4.829462e-01
        26         4        6.252907e-01
        27         4        1.709983e+00
        28         4       -1.297682e+00
        29         4        5.620670e-01
        30         4        8.142115e-01
        31         4       -1.072716e+00
        32         4       -2.185415e-01
        33         4        1.815945e+00
        34         4       -9.875962e-01
        35         4       -1.963669e-01
        36         4       -7.597694e-01
        37         4       -4.942674e-01
        38         4       -2.979944e-01
        39         4       -6.313704e-01
        40         4       -1.623887e+00
        41         4       -1.513444e-01
        42         4       -6.434124e-01
        43         4        1.782151e+00
        44         4       -1.781665e+00
        45         4       -8.367807e-01
        46         4        6.280857e-02
        47         4       -9.532334e-01
        48         4       -4.193369e-01
        49         4       -1.254471e+00
        50         4        8.785079e-01
        51         4       -6.377796e-01
        52         4       -9.733654e-01
        53         4       -2.437304e-01
        54         4        1.648151e+00
        55         4       -6.922888e-01
        56         4        2.179561e+00
        57         4       -3.157229e-01
        58         4       -5.969688e-01
        59         4        3.577157e-01
        60         4       -7.490215e-01
        61         4       -8.095343e-01
        62         4        4.453742e-01
        63         4        1.112563e+00
        64         4       -8.478924e-02
        65         4       -2.040216e-01
        66         4        7.658491e-01
        67         4        4.904177e-01
        68         4       -3.793959e-01
        69         4       -3.400019e-01
        70         4        3.413003e-01
        71         4       -8.416827e-01
        72         4        7.836144e-01
        73         4        4.884244e-01
        74         4       -5.430224e-01
        75         4        8.011992e-01
        76         4        3.828593e-01
        77         4        6.280613e-02
        78         4       -1.913041e+00
        79         4       -1.057977e+00
        80         4       -2.915958e+00
        81         4        1.632400e+00
        82         4       -6.418172e-01
        83         4        6.508384e-01
        84         4       -6.115531e-01
        85         4       -2.656157e-01
        86         4       -2.485391e-02
        87         4        2.356706e-01
        88         4        5.547295e-01
        89         4        3.485226e-01
        90         4        1.653522e+00
        91         4        1.133117e+00
        92         4        1.874786e+00
        93         4        1.468273e+00
        94         4        5.954669e-01
        95         4       -8.402757e-01
        96         4       -1.377566e+00
        97         4       -9.295372e-01
        98         4        6.692589e-01
        99         4       -7.638984e-01
       100         4        3.809302e-01
         1         5       -4.162059e-02
         2         5        1.590926e+00
         3         5       -1.038586e+00
         4         5       -1.001051e+00
         5         5       -4.353295e-01
         6         5        5.280831e-01
         7         5        5.636885e-01
         8         5        1.769022e+00
         9         5        1.234680e+00
        10         5       -1.657763e+00
        11         5       -5.567876e-01
        12         5       -1.277743e+00
        13         5       -1.214000e+00
        14         5       -1.282605e+00
        15         5        3.892099e-01
        16         5        2.103355e+00
        17         5        8.304344e-01
        18         5        3.934704e-01
        19         5       -3.082981e+00
        20         5        9.651214e-02
        21         5       -1.836264e+00
        22         5        1.269759e+00
        23         5       -1.170524e-01
        24         5        2.701478e-01
        25         5       -2.248944e+00
        26         5        4.532727e-01
        27         5        8.552577e-01
        28         5       -1.045412e+00
        29         5       -1.493260e-01
        30         5        1.046985e+00
        31         5       -6.575875e-01
        32         5       -5.092123e-01
        33         5       -2.348763e-02
        34         5       -7.423542e-01
        35         5        1.714012e+00
        36         5       -8.446901e-02
        37         5       -8.307333e-01
        38         5       -8.263030e-03
        39         5        2.331810e-01
        40         5        5.625620e-01
        41         5        1.380495e+00
        42         5        9.133041e-01
        43         5       -1.368213e+00
        44         5       -1.582844e+00
        45         5       -5.858208e-01
        46         5       -3.503560e-01
        47         5       -3.538086e-01
        48         5        1.622324e+00
        49         5        1.346875e+00
        50         5        5.409682e-01
        51         5        1.782556e+00
        52         5        6.250094e-01
        53         5       -1.140427e+00
        54         5        2.422469e-01
        55         5       -1.267522e+00
        56         5        2.901105e-01
        57         5        4.019738e-01
        58         5        5.961754e-01
        59         5       -1.091337e+00
        60         5       -5.463442e-02
        61         5        1.314020e+00
        62         5        8.019587e-01
        63         5       -1.397388e+00
        64         5        3.497852e-02
        65         5        1.570872e+00
        66         5       -6.719319e-01
        67         5        1.230983e+00
        68         5       -1.507392e+00
        69         5       -9.500608e-01
        70         5        8.022217e-01
        71         5       -1.170152e-02
        72         5        4.848592e-01
        73         5        1.080921e-01
        74         5       -1.981789e+00
        75         5       -8.262622e-01
        76         5        2.267332e-01
        77         5       -6.228191e-01
        78         5       -1.716778e-01
        79         5        3.565699e-01
        80         5       -1.999422e-01
        81         5        4.899321e-01
        82         5       -9.198548e-01
        83         5       -1.262970e+00
        84         5       -1.475405e+00
        85         5       -4.467774e-01
        86         5       -6.157042e-01
        87         5       -1.019781e+00
        88         5        1.671530e+00
        89         5        1.084637e+00
        90         5       -1.662242e+00
        91         5        8.527950e-02
        92         5        5.752745e-01
        93         5       -4.926615e-01
        94         5        1.990798e+00
        95         5       -1.385825e+00
        96         5       -3.660734e-01
        97         5       -6.694062e-01
        98         5        2.909016e-01
        99         5        4.164137e-01
       100         5        3.900280e-01
;
param X_Original:=
    1        4.449396e-01
    2        5.038986e-01
    3        1.801259e-01
    4       -2.090661e-01
    5       -1.023963e+00
    6       -2.466869e-02
    7       -2.277829e+00
    8        8.858391e-01
    9       -4.393842e-01
   10       -6.248612e-01
   11        3.371117e-01
   12       -5.760422e-01
   13        1.544373e+00
   14       -7.752602e-01
   15        1.321403e-01
   16        2.121849e+00
   17       -2.492785e+00
   18        6.031843e-01
   19       -1.511478e+00
   20       -4.193289e+00
   21        1.765949e+00
   22       -1.027083e-01
   23       -7.854256e-01
   24        1.299717e+00
   25       -1.394864e+00
   26        9.411886e-02
   27        2.995010e-01
   28        2.484543e-01
   29       -1.286500e+00
   30       -1.682088e+00
   31        9.601628e-01
   32       -2.752219e-01
   33        1.676038e+00
   34        2.077227e-01
   35       -3.293804e+00
   36        7.504409e-01
   37       -1.774305e+00
   38       -1.658507e+00
   39       -9.127931e-01
   40       -3.257814e-01
   41       -2.443378e-01
   42       -1.794959e-02
   43        1.059944e+00
   44       -1.285409e+00
   45       -8.570899e-01
   46       -5.393833e-01
   47       -3.774482e-02
   48        3.021487e-01
   49       -3.265900e-01
   50       -4.061794e-01
   51       -3.129193e-01
   52        6.698414e-01
   53        1.297146e-01
   54       -2.269541e+00
   55        2.267505e+00
   56        8.495334e-01
   57       -1.795509e+00
   58       -1.396035e-01
   59       -1.401140e+00
   60       -1.553811e-01
   61       -1.195214e+00
   62        1.660261e+00
   63        2.128840e+00
   64        7.683793e-01
   65        2.944140e-01
   66       -1.656850e-01
   67        8.351517e-03
   68       -1.133215e+00
   69       -1.297734e+00
   70        1.935845e-01
   71        4.484505e-01
   72       -5.846226e-01
   73       -3.131702e-01
   74        2.600612e-01
   75        7.272551e-01
   76        7.844920e-01
   77        3.298851e-01
   78       -2.343866e-01
   79       -8.730453e-01
   80       -1.996865e+00
   81       -1.359169e+00
   82       -8.266720e-01
   83       -3.191819e-01
   84        9.674599e-01
   85        6.127682e-01
   86        8.712682e-01
   87        1.213599e+00
   88       -4.046315e-01
   89       -1.529611e+00
   90       -4.812253e-02
   91        1.074050e+00
   92       -4.425765e-01
   93       -5.701727e-01
   94       -3.291738e-01
   95       -9.182094e-01
   96       -1.670438e-01
   97        4.720108e-01
   98       -6.652523e-01
   99        1.405601e+00
  100        3.620386e-01
;
param outliervec_original :=
    1    1
    2    1
    3    0
    4    1
    5    1
    6    1
    7    1
    8    1
    9    1
   10    1
   11    0
   12    1
   13    1
   14    1
   15    1
   16    1
   17    0
   18    1
   19    1
   20    0
   21    0
   22    1
   23    1
   24    1
   25    1
   26    1
   27    1
   28    1
   29    1
   30    0
   31    1
   32    1
   33    1
   34    1
   35    0
   36    1
   37    1
   38    1
   39    0
   40    1
   41    1
   42    1
   43    1
   44    1
   45    1
   46    0
   47    0
   48    1
   49    1
   50    1
   51    1
   52    1
   53    1
   54    1
   55    0
   56    1
   57    1
   58    1
   59    1
   60    1
   61    0
   62    1
   63    1
   64    1
   65    1
   66    1
   67    1
   68    0
   69    1
   70    1
   71    1
   72    1
   73    1
   74    1
   75    1
   76    1
   77    1
   78    1
   79    1
   80    1
   81    1
   82    1
   83    0
   84    1
   85    1
   86    1
   87    1
   88    1
   89    1
   90    1
   91    1
   92    1
   93    1
   94    1
   95    1
   96    1
   97    1
   98    1
   99    1
  100    1
;
param d:= 57;
param r:=5;
param p:=0.860000;
param M:=1000;
param U:=
         1         1        2.349439e-01
         2         1        6.341449e-01
         3         1        2.410813e-01
         4         1       -8.846670e-01
         5         1        2.886659e+00
         6         1        4.023500e-01
         7         1       -6.497770e-01
         8         1       -2.357853e-01
         9         1        2.950927e+00
        10         1       -1.245011e-01
        11         1       -2.211626e-01
        12         1        4.224758e-01
        13         1        8.693906e-01
        14         1        2.743871e-01
        15         1       -5.600367e-01
        16         1       -1.143245e+00
        17         1        6.535729e-01
        18         1       -3.378048e-01
        19         1       -1.047098e+00
        20         1        9.352416e-01
        21         1       -1.542607e+00
        22         1        2.034398e+00
        23         1       -4.379820e-01
        24         1       -5.657561e-01
        25         1       -1.425484e-01
        26         1        1.674652e+00
        27         1       -1.434168e-01
        28         1       -6.382133e-01
        29         1       -1.316139e-01
        30         1       -1.168223e+00
        31         1        1.625756e+00
        32         1       -6.920616e-01
        33         1       -1.057722e+00
        34         1       -1.164121e+00
        35         1       -4.883177e-01
        36         1       -2.786842e+00
        37         1       -4.414794e-01
        38         1       -1.387522e+00
        39         1       -1.695993e+00
        40         1       -2.224932e-01
        41         1       -3.856987e-01
        42         1        6.615621e-01
        43         1       -7.369107e-01
        44         1       -4.963210e-02
        45         1        2.792362e+00
        46         1        2.272584e-01
        47         1       -1.035509e+00
        48         1        1.654113e+00
        49         1       -2.613256e-02
        50         1       -7.325016e-01
        51         1        4.015800e-01
        52         1        6.311313e-01
        53         1        1.376502e+00
        54         1       -7.319323e-01
        55         1       -1.330856e+00
        56         1        2.166087e+00
        57         1       -3.847630e-01
         1         2       -1.283180e+00
         2         2        1.882792e+00
         3         2        2.057647e-01
         4         2       -9.873635e-01
         5         2        3.431465e-01
         6         2       -1.180146e+00
         7         2       -3.636911e-01
         8         2       -1.435876e-01
         9         2       -6.219906e-01
        10         2        1.334869e+00
        11         2       -7.724743e-01
        12         2       -4.619705e-01
        13         2       -2.364156e+00
        14         2       -1.865807e+00
        15         2        1.548505e-02
        16         2        1.026563e+00
        17         2       -1.623442e-01
        18         2       -1.737860e+00
        19         2        3.144560e-01
        20         2        8.750093e-01
        21         2       -9.051347e-01
        22         2        3.119446e-01
        23         2        8.758602e-01
        24         2       -1.831251e+00
        25         2       -1.645047e-01
        26         2        4.632937e-01
        27         2        9.432254e-01
        28         2       -1.861895e+00
        29         2       -4.492646e-01
        30         2        1.309947e+00
        31         2       -5.172604e-01
        32         2        5.502889e-01
        33         2       -2.917030e-01
        34         2       -1.091847e+00
        35         2        9.827517e-02
        36         2       -1.632622e-01
        37         2        3.277821e-01
        38         2        1.402538e+00
        39         2        1.294505e+00
        40         2       -1.505598e+00
        41         2       -9.992458e-01
        42         2       -3.588151e-01
        43         2        1.680900e-01
        44         2        1.527056e-01
        45         2        1.046706e+00
        46         2        1.350025e-02
        47         2        4.593629e-01
        48         2        6.860018e-01
        49         2       -5.396289e-01
        50         2       -2.072648e+00
        51         2       -1.018474e+00
        52         2        6.586368e-01
        53         2       -1.866754e+00
        54         2       -5.936452e-01
        55         2        1.775662e+00
        56         2        2.038545e+00
        57         2       -1.365249e+00
         1         3        1.063501e-01
         2         3       -4.135740e-01
         3         3        1.317456e+00
         4         3        6.381072e-01
         5         3       -5.728430e-01
         6         3       -1.567532e+00
         7         3       -8.259381e-01
         8         3       -4.649255e-01
         9         3       -7.592974e-01
        10         3       -1.691131e+00
        11         3       -9.674048e-01
        12         3       -4.649119e-01
        13         3        2.305617e-01
        14         3        3.416274e+00
        15         3        8.010993e-01
        16         3        2.668564e-01
        17         3       -4.588424e-01
        18         3        7.778224e-01
        19         3        2.259054e-01
        20         3       -8.573299e-01
        21         3        7.030158e-01
        22         3        1.690277e+00
        23         3        1.714382e-01
        24         3       -2.091722e-01
        25         3        1.195779e+00
        26         3        2.090103e-04
        27         3        1.423884e-01
        28         3       -8.234350e-01
        29         3        4.732238e-01
        30         3        2.859708e-01
        31         3        9.237118e-02
        32         3        1.043672e+00
        33         3        1.311681e+00
        34         3       -2.744837e-01
        35         3       -3.648369e-01
        36         3       -9.024500e-01
        37         3       -1.151092e+00
        38         3        4.009912e-01
        39         3        1.647212e+00
        40         3        9.703074e-02
        41         3        1.177880e+00
        42         3        1.585294e+00
        43         3        1.184113e+00
        44         3       -6.056727e-01
        45         3        5.824401e-01
        46         3       -1.647638e+00
        47         3       -5.207780e-01
        48         3       -1.872465e-01
        49         3        9.486544e-01
        50         3        8.049265e-01
        51         3        7.202988e-01
        52         3        1.201397e+00
        53         3        6.431736e-01
        54         3        4.083760e-01
        55         3       -7.238721e-01
        56         3       -5.194359e-01
        57         3        4.112251e-01
         1         4        6.659698e-01
         2         4       -5.901099e-01
         3         4       -5.190253e-01
         4         4        3.460073e-01
         5         4       -1.780093e+00
         6         4        1.366789e-01
         7         4        1.450589e-01
         8         4        7.893471e-02
         9         4       -3.406297e-01
        10         4       -1.861336e+00
        11         4        6.388914e-01
        12         4        1.077966e+00
        13         4        8.591478e-01
        14         4        5.065933e-01
        15         4        1.875496e-01
        16         4        6.054880e-01
        17         4        6.252907e-01
        18         4        1.709983e+00
        19         4        1.815945e+00
        20         4       -7.597694e-01
        21         4       -4.942674e-01
        22         4       -6.313704e-01
        23         4       -6.434124e-01
        24         4        1.782151e+00
        25         4       -8.367807e-01
        26         4        6.280857e-02
        27         4       -4.193369e-01
        28         4       -1.254471e+00
        29         4       -6.377796e-01
        30         4       -2.437304e-01
        31         4        2.179561e+00
        32         4       -5.969688e-01
        33         4        3.577157e-01
        34         4       -7.490215e-01
        35         4        4.453742e-01
        36         4        1.112563e+00
        37         4       -8.478924e-02
        38         4       -2.040216e-01
        39         4        7.658491e-01
        40         4       -3.793959e-01
        41         4        3.413003e-01
        42         4        7.836144e-01
        43         4        4.884244e-01
        44         4        8.011992e-01
        45         4        3.828593e-01
        46         4        6.280613e-02
        47         4       -1.057977e+00
        48         4       -2.915958e+00
        49         4        6.508384e-01
        50         4        5.547295e-01
        51         4        1.653522e+00
        52         4        1.133117e+00
        53         4        1.874786e+00
        54         4       -8.402757e-01
        55         4       -1.377566e+00
        56         4       -7.638984e-01
        57         4        3.809302e-01
         1         5        1.590926e+00
         2         5       -1.001051e+00
         3         5       -4.353295e-01
         4         5        5.280831e-01
         5         5        5.636885e-01
         6         5        1.769022e+00
         7         5       -1.657763e+00
         8         5       -5.567876e-01
         9         5       -1.277743e+00
        10         5       -1.282605e+00
        11         5        3.892099e-01
        12         5        2.103355e+00
        13         5       -3.082981e+00
        14         5        9.651214e-02
        15         5        1.269759e+00
        16         5        2.701478e-01
        17         5        4.532727e-01
        18         5        8.552577e-01
        19         5       -2.348763e-02
        20         5       -8.446901e-02
        21         5       -8.307333e-01
        22         5        2.331810e-01
        23         5        9.133041e-01
        24         5       -1.368213e+00
        25         5       -5.858208e-01
        26         5       -3.503560e-01
        27         5        1.622324e+00
        28         5        1.346875e+00
        29         5        1.782556e+00
        30         5       -1.140427e+00
        31         5        2.901105e-01
        32         5        5.961754e-01
        33         5       -1.091337e+00
        34         5       -5.463442e-02
        35         5        8.019587e-01
        36         5       -1.397388e+00
        37         5        3.497852e-02
        38         5        1.570872e+00
        39         5       -6.719319e-01
        40         5       -1.507392e+00
        41         5        8.022217e-01
        42         5        4.848592e-01
        43         5        1.080921e-01
        44         5       -8.262622e-01
        45         5        2.267332e-01
        46         5       -6.228191e-01
        47         5        3.565699e-01
        48         5       -1.999422e-01
        49         5       -1.262970e+00
        50         5        1.671530e+00
        51         5       -1.662242e+00
        52         5        8.527950e-02
        53         5        5.752745e-01
        54         5       -1.385825e+00
        55         5       -3.660734e-01
        56         5        4.164137e-01
        57         5        3.900280e-01
;

param theta:=
    1       -1.069161e+00
    2        2.098326e+00
    3        1.620449e-01
    4       -8.811144e-01
    5       -9.540480e-01
;
param X_true:=
    1       -5.031105e+00
    2        4.680696e+00
    3        1.260140e+00
    4       -1.831245e+00
    5       -1.428416e+00
    6       -4.968680e+00
    7        1.251506e+00
    8        3.371117e-01
    9       -3.064033e+00
   10        5.523780e+00
   11       -2.475469e+00
   12       -4.452909e+00
   13       -3.668621e+00
   14       -4.193289e+00
   15       -6.155881e-01
   16        2.628380e+00
   17       -2.097175e+00
   18       -5.482035e+00
   19        2.383073e-01
   20        1.447236e+00
   21        1.092014e+00
   22       -9.127931e-01
   23        2.029478e+00
   24       -3.536509e+00
   25        1.297193e+00
   26       -5.393833e-01
   27        9.773121e-01
   28       -3.537593e+00
   29       -1.863991e+00
   30        5.346831e+00
   31       -5.005829e+00
   32        2.020950e+00
   33        1.457338e+00
   34       -3.788000e-01
   35       -4.883492e-01
   36        2.843648e+00
   37        1.014615e+00
   38        3.172524e+00
   39        4.762759e+00
   40       -1.133215e+00
   41       -2.559582e+00
   42       -2.356371e+00
   43        7.989805e-01
   44        3.576903e-01
   45       -1.248431e+00
   46        5.722082e-02
   47        2.578644e+00
   48        2.400647e+00
   49       -3.191819e-01
   50       -5.518994e+00
   51       -2.320807e+00
   52       -1.778330e-01
   53       -7.485277e+00
   54        1.665591e+00
   55        6.594561e+00
   56        2.153266e+00
   57       -3.094474e+00
;
param X:=
    1        5.038986e-01
    2       -2.090661e-01
    3       -1.023963e+00
    4       -2.466869e-02
    5       -2.277829e+00
    6        8.858391e-01
    7       -6.248612e-01
    8        3.371117e-01
    9       -5.760422e-01
   10       -7.752602e-01
   11        1.321403e-01
   12        2.121849e+00
   13       -1.511478e+00
   14       -4.193289e+00
   15       -1.027083e-01
   16        1.299717e+00
   17        9.411886e-02
   18        2.995010e-01
   19        1.676038e+00
   20        7.504409e-01
   21       -1.774305e+00
   22       -9.127931e-01
   23       -1.794959e-02
   24        1.059944e+00
   25       -8.570899e-01
   26       -5.393833e-01
   27        3.021487e-01
   28       -3.265900e-01
   29       -3.129193e-01
   30        1.297146e-01
   31        8.495334e-01
   32       -1.396035e-01
   33       -1.401140e+00
   34       -1.553811e-01
   35        1.660261e+00
   36        2.128840e+00
   37        7.683793e-01
   38        2.944140e-01
   39       -1.656850e-01
   40       -1.133215e+00
   41        1.935845e-01
   42       -5.846226e-01
   43       -3.131702e-01
   44        7.272551e-01
   45        7.844920e-01
   46        3.298851e-01
   47       -8.730453e-01
   48       -1.996865e+00
   49       -3.191819e-01
   50       -4.046315e-01
   51       -4.812253e-02
   52        1.074050e+00
   53       -4.425765e-01
   54       -9.182094e-01
   55       -1.670438e-01
   56        1.405601e+00
   57        3.620386e-01
;
param outliervec:=
    1    1
    2    1
    3    1
    4    1
    5    1
    6    1
    7    1
    8    0
    9    1
   10    1
   11    1
   12    1
   13    1
   14    0
   15    1
   16    1
   17    1
   18    1
   19    1
   20    1
   21    1
   22    0
   23    1
   24    1
   25    1
   26    0
   27    1
   28    1
   29    1
   30    1
   31    1
   32    1
   33    1
   34    1
   35    1
   36    1
   37    1
   38    1
   39    1
   40    0
   41    1
   42    1
   43    1
   44    1
   45    1
   46    1
   47    1
   48    1
   49    0
   50    1
   51    1
   52    1
   53    1
   54    1
   55    1
   56    1
   57    1
; 
param greedy_time :=         4.778872e-01
;